(set-info :status unknown)
(declare-fun mem0 () (_ BitVec 8))
(declare-fun C () (_ BitVec 43))
(declare-fun |ana_WillNotOverflowSignedAdd(%x, trunc(C))| () (_ BitVec 1))
(declare-fun u_%sx () (_ BitVec 8))
(declare-fun %x () (_ BitVec 6))
(assert
 (let (($x2736 (= |ana_WillNotOverflowSignedAdd(%x, trunc(C))| (_ bv1 1))))
 (let (($x8555 (= (bvadd ((_ sign_extend 1) %x) ((_ sign_extend 1) ((_ extract 5 0) C))) ((_ sign_extend 1) (bvadd %x ((_ extract 5 0) C))))))
 (and (=> $x2736 $x8555) (= u_%sx (_ bv1 8)) $x2736 (= (bvand C (bvshl (_ bv8796093022207 43) (bvsub (_ bv6 43) (_ bv1 43)))) (_ bv0 43)) (and (distinct mem0 mem0) true)))))
(check-sat)
